p cnf 335 531
a 1 2 3 4 5 6 7 8 9 10 11 12 13 14 15 16 17 18 19 21 22 23 24 25 26 27 28 29 30 31 32 33 34 35 36 37 38 39 40 41 42 43 45 46 47 48 49 50 51 52 53 55 56 57 58 60 61 62 63 64 65 66 0
e 20 44 54 59 67 68 69 70 71 72 73 74 75 76 77 78 79 80 81 82 83 84 85 86 87 88 89 90 91 92 93 94 95 96 97 98 99 100 101 102 103 104 105 106 107 108 109 110 111 112 113 114 115 116 117 118 119 120 121 122 123 124 125 126 127 128 129 130 131 132 133 134 135 136 137 138 139 140 141 142 143 144 145 146 147 148 149 150 151 152 153 154 155 156 157 158 159 160 161 162 163 164 165 166 167 168 169 170 171 172 173 174 175 176 177 178 179 180 181 182 183 184 185 186 187 188 189 190 191 192 193 194 195 196 197 198 199 200 201 202 203 204 205 206 207 208 209 210 211 212 213 214 215 216 217 218 219 220 221 222 223 224 225 226 227 228 229 230 231 232 233 234 235 236 237 238 239 240 241 242 243 244 245 246 247 248 249 250 251 252 253 254 255 256 257 258 259 260 261 262 263 264 265 266 267 268 269 270 271 272 273 274 275 276 277 278 279 280 281 282 283 284 285 286 287 288 289 290 291 292 293 294 295 296 297 298 299 300 301 302 303 304 305 306 307 308 309 310 311 312 313 314 315 316 317 318 319 320 321 322 323 324 325 326 327 328 329 330 331 332 333 334 335 0
-335 0
335 -241 0
335 -265 0
335 -272 0
335 -279 0
335 -283 0
335 -287 0
335 -295 0
335 -299 0
335 -303 0
335 -307 0
335 -311 0
335 -315 0
335 -319 0
335 -323 0
335 -327 0
335 -334 0
5 4 6 3 2 1 -240 -239 -333 334 0
333 -332 0
333 -293 0
333 -263 0
333 -237 0
-86 -85 -84 -83 -331 332 0
331 -328 0
331 -329 0
331 -330 0
32 38 33 35 37 36 34 -149 -148 -99 -98 330 0
25 24 23 28 29 27 26 -146 -145 -94 -93 329 0
13 19 18 17 16 15 14 -143 -142 -89 -88 328 0
5 4 3 2 1 66 -240 -239 -326 327 0
326 -324 0
326 -325 0
326 -266 0
326 -210 0
326 -211 0
326 -267 0
326 -212 0
-222 -218 325 0
-258 -254 324 0
4 6 3 2 66 65 -240 -239 -322 323 0
322 -320 0
322 -321 0
322 -186 0
322 -195 0
322 -196 0
322 -197 0
322 -198 0
-218 -250 321 0
-236 -258 320 0
5 4 6 3 2 65 -240 -239 -318 319 0
318 -316 0
318 -317 0
318 -227 0
318 -232 0
318 -233 0
318 -234 0
318 -235 0
-262 -199 317 0
-275 -218 316 0
5 4 3 2 66 65 -240 -239 -314 315 0
314 -312 0
314 -313 0
314 -209 0
314 -214 0
314 -215 0
314 -216 0
314 -217 0
-254 -199 313 0
-236 -268 312 0
4 6 3 2 1 66 -240 -239 -310 311 0
310 -308 0
310 -309 0
310 -256 0
310 -187 0
310 -188 0
310 -257 0
310 -189 0
-222 -199 309 0
-268 -250 308 0
5 6 3 2 1 66 -240 -239 -306 307 0
306 -304 0
306 -305 0
306 -114 0
306 -135 0
306 -220 0
306 -221 0
306 -140 0
-258 -173 305 0
-268 -204 304 0
5 6 2 1 66 65 -240 -239 -302 303 0
302 -300 0
302 -301 0
302 -201 0
302 -203 0
302 -157 0
302 -162 0
302 -163 0
-250 -173 301 0
-222 -275 300 0
5 4 6 2 1 65 -240 -239 -298 299 0
298 -296 0
298 -297 0
298 -273 0
298 -274 0
298 -223 0
298 -224 0
298 -225 0
-236 -204 297 0
-262 -250 296 0
5 4 2 1 66 65 -240 -239 -294 295 0
294 -292 0
294 -255 0
294 -219 0
294 -293 0
-275 -268 293 0
-86 -85 -84 -83 -291 292 0
291 -288 0
291 -289 0
291 -290 0
32 38 35 37 36 53 49 -132 -131 -122 -121 290 0
23 28 29 27 26 52 46 -129 -128 -119 -118 289 0
13 19 18 17 16 51 42 -126 -125 -116 -115 288 0
4 6 2 1 66 65 -240 -239 -286 287 0
286 -284 0
286 -285 0
286 -247 0
286 -249 0
286 -178 0
286 -179 0
286 -180 0
-199 -204 285 0
-258 -275 284 0
5 6 3 1 66 65 -240 -239 -282 283 0
282 -280 0
282 -281 0
282 -152 0
282 -169 0
282 -170 0
282 -171 0
282 -172 0
-254 -204 281 0
-222 -262 280 0
5 4 6 3 1 65 -240 -239 -278 279 0
278 -276 0
278 -277 0
278 -259 0
278 -261 0
278 -228 0
278 -229 0
278 -230 0
-236 -173 277 0
-275 -254 276 0
275 -273 0
275 -274 0
275 -223 0
275 -224 0
275 -225 0
-86 -85 -84 -83 -260 -134 274 0
-86 -85 -84 -83 -231 -156 273 0
5 4 3 1 66 65 -240 -239 -271 272 0
271 -269 0
271 -270 0
271 -252 0
271 -253 0
271 -205 0
271 -206 0
271 -207 0
-218 -173 270 0
-262 -268 269 0
268 -266 0
268 -210 0
268 -211 0
268 -267 0
268 -212 0
-86 -85 -84 -83 -139 -251 267 0
-86 -85 -84 -83 -103 -208 266 0
4 6 3 1 66 65 -240 -239 -264 265 0
264 -246 0
264 -200 0
264 -255 0
264 -263 0
-262 -258 263 0
262 -259 0
262 -261 0
262 -228 0
262 -229 0
262 -230 0
-86 -85 -84 -83 -260 -113 261 0
260 -233 0
260 -234 0
260 -235 0
-86 -85 -84 -83 -168 -226 259 0
258 -256 0
258 -187 0
258 -188 0
258 -257 0
258 -189 0
-86 -85 -84 -83 -139 -248 257 0
-86 -85 -84 -83 -124 -181 256 0
-254 -250 255 0
254 -252 0
254 -253 0
254 -205 0
254 -206 0
254 -207 0
-86 -85 -84 -83 -151 -213 253 0
-86 -85 -84 -83 -113 -251 252 0
251 -215 0
251 -216 0
251 -217 0
250 -247 0
250 -249 0
250 -178 0
250 -179 0
250 -180 0
-86 -85 -84 -83 -134 -248 249 0
248 -196 0
248 -197 0
248 -198 0
-86 -85 -84 -83 -161 -190 247 0
-86 -85 -84 -83 -245 246 0
245 -242 0
245 -243 0
245 -244 0
32 38 35 37 36 53 49 -101 -100 -111 -110 244 0
23 28 29 27 26 52 46 -96 -95 -108 -107 243 0
13 19 18 17 16 51 42 -91 -90 -105 -104 242 0
5 6 3 2 66 65 -240 -239 -238 241 0
240 -65 0
240 -3 0
240 -2 0
240 -1 0
239 -66 0
239 -6 0
239 -5 0
239 -4 0
238 -87 0
238 -200 0
238 -219 0
238 -237 0
-236 -222 237 0
236 -227 0
236 -232 0
236 -233 0
236 -234 0
236 -235 0
-86 -85 -84 -83 -194 235 0
-86 -85 -84 -83 -177 -151 234 0
-86 -85 -84 -83 -161 -185 233 0
-86 -85 -84 -83 -177 -231 232 0
231 -228 0
231 -229 0
231 -230 0
-86 -85 -84 -83 -151 230 0
-86 -85 -84 -83 -194 -113 229 0
-86 -85 -84 -83 -161 -168 228 0
-86 -85 -84 -83 -185 -226 227 0
226 -223 0
226 -224 0
226 -225 0
-86 -85 -84 -83 -161 225 0
-86 -85 -84 -83 -151 -156 224 0
-86 -85 -84 -83 -194 -134 223 0
222 -114 0
222 -135 0
222 -220 0
222 -221 0
222 -140 0
-86 -85 -84 -83 -164 -124 221 0
-86 -85 -84 -83 -202 -103 220 0
-218 -204 219 0
218 -209 0
218 -214 0
218 -215 0
218 -216 0
218 -217 0
-86 -85 -84 -83 -185 217 0
-86 -85 -84 -83 -194 -124 216 0
-86 -85 -84 -83 -177 -168 215 0
-86 -85 -84 -83 -194 -213 214 0
213 -210 0
213 -211 0
213 -212 0
-86 -85 -84 -83 -124 212 0
-86 -85 -84 -83 -185 -139 211 0
-86 -85 -84 -83 -168 -103 210 0
-86 -85 -84 -83 -177 -208 209 0
208 -205 0
208 -206 0
208 -207 0
-86 -85 -84 -83 -168 207 0
-86 -85 -84 -83 -151 -124 206 0
-86 -85 -84 -83 -185 -113 205 0
204 -201 0
204 -203 0
204 -157 0
204 -162 0
204 -163 0
-86 -85 -84 -83 -156 -202 203 0
202 -170 0
202 -171 0
202 -172 0
-86 -85 -84 -83 -161 -141 201 0
-199 -173 200 0
199 -186 0
199 -195 0
199 -196 0
199 -197 0
199 -198 0
-86 -85 -84 -83 -177 198 0
-86 -85 -84 -83 -194 -103 197 0
-86 -85 -84 -83 -185 -156 196 0
-86 -85 -84 -83 -194 -190 195 0
194 -191 0
194 -192 0
194 -193 0
38 37 36 34 53 48 64 -80 -79 -149 -148 193 0
25 28 29 27 52 45 63 -75 -74 -146 -145 192 0
19 18 17 15 51 62 41 -68 -67 -143 -142 191 0
190 -187 0
190 -188 0
190 -189 0
-86 -85 -84 -83 -103 189 0
-86 -85 -84 -83 -177 -139 188 0
-86 -85 -84 -83 -156 -124 187 0
-86 -85 -84 -83 -185 -181 186 0
185 -182 0
185 -183 0
185 -184 0
38 37 36 53 49 48 64 -80 -79 -122 -121 184 0
28 29 27 52 46 45 63 -75 -74 -119 -118 183 0
19 18 17 51 62 42 41 -68 -67 -116 -115 182 0
181 -178 0
181 -179 0
181 -180 0
-86 -85 -84 -83 -156 180 0
-86 -85 -84 -83 -161 -103 179 0
-86 -85 -84 -83 -177 -134 178 0
177 -174 0
177 -175 0
177 -176 0
37 36 53 49 48 64 57 -80 -79 -101 -100 176 0
28 27 56 52 46 45 63 -75 -74 -96 -95 175 0
18 17 55 51 62 42 41 -91 -90 -68 -67 174 0
173 -152 0
173 -169 0
173 -170 0
173 -171 0
173 -172 0
-86 -85 -84 -83 -113 172 0
-86 -85 -84 -83 -151 -139 171 0
-86 -85 -84 -83 -168 -134 170 0
-86 -85 -84 -83 -168 -164 169 0
168 -165 0
168 -166 0
168 -167 0
35 37 36 53 49 48 57 -111 -110 -122 -121 167 0
28 27 26 56 52 46 45 -108 -107 -119 -118 166 0
18 17 16 55 51 42 41 -105 -104 -116 -115 165 0
164 -157 0
164 -162 0
164 -163 0
-86 -85 -84 -83 -134 163 0
-86 -85 -84 -83 -161 -139 162 0
161 -158 0
161 -159 0
161 -160 0
35 37 36 34 53 48 57 -149 -148 -132 -131 160 0
25 28 27 26 56 52 45 -146 -145 -129 -128 159 0
18 17 16 15 55 51 41 -143 -142 -126 -125 158 0
-86 -85 -84 -83 -113 -156 157 0
156 -153 0
156 -154 0
156 -155 0
38 35 36 53 50 49 48 -101 -100 -132 -131 155 0
29 27 26 52 46 45 47 -96 -95 -129 -128 154 0
19 17 16 51 43 42 41 -91 -90 -126 -125 153 0
-86 -85 -84 -83 -151 -141 152 0
151 -144 0
151 -147 0
151 -150 0
38 35 37 36 34 53 48 -149 -148 -111 -110 150 0
149 40 0
149 20 0
148 39 0
148 -20 0
25 28 29 27 26 52 45 -146 -145 -108 -107 147 0
146 31 0
146 20 0
145 30 0
145 -20 0
19 18 17 16 15 51 41 -143 -142 -105 -104 144 0
143 20 0
143 22 0
142 21 0
142 -20 0
141 -114 0
141 -135 0
141 -140 0
-86 -85 -84 -83 -139 140 0
139 -136 0
139 -137 0
139 -138 0
38 33 35 37 61 49 48 -78 -77 -99 -98 138 0
24 28 29 26 46 45 60 -73 -72 -94 -93 137 0
19 18 16 14 58 42 41 -70 -69 -89 -88 136 0
-86 -85 -84 -83 -134 -124 135 0
134 -127 0
134 -130 0
134 -133 0
38 35 37 53 61 49 48 -132 -131 -78 -77 133 0
132 44 0
132 12 0
131 -44 0
131 9 0
28 29 26 52 46 45 60 -129 -128 -73 -72 130 0
129 44 0
129 10 0
128 -44 0
128 8 0
19 18 16 51 58 42 41 -70 -69 -126 -125 127 0
126 44 0
126 11 0
125 -44 0
125 7 0
124 -117 0
124 -120 0
124 -123 0
38 33 35 36 50 49 48 -122 -121 -99 -98 123 0
122 44 0
122 40 0
121 -44 0
121 39 0
24 29 27 26 46 45 47 -119 -118 -94 -93 120 0
119 44 0
119 31 0
118 -44 0
118 30 0
19 17 16 14 43 42 41 -116 -115 -89 -88 117 0
116 44 0
116 22 0
115 -44 0
115 21 0
-86 -85 -84 -83 -113 -103 114 0
113 -106 0
113 -109 0
113 -112 0
38 35 53 61 50 49 48 -111 -110 -78 -77 112 0
111 54 0
111 12 0
110 -54 0
110 9 0
29 26 52 46 45 60 47 -108 -107 -73 -72 109 0
108 54 0
108 10 0
107 -54 0
107 8 0
19 16 51 43 58 42 41 -70 -69 -105 -104 106 0
105 54 0
105 11 0
104 -54 0
104 7 0
103 -92 0
103 -97 0
103 -102 0
38 33 35 37 36 49 48 -101 -100 -99 -98 102 0
101 40 0
101 54 0
100 -54 0
100 39 0
99 12 0
99 20 0
98 9 0
98 -20 0
24 28 29 27 26 46 45 -96 -95 -94 -93 97 0
96 54 0
96 31 0
95 -54 0
95 30 0
94 10 0
94 20 0
93 8 0
93 -20 0
19 18 17 16 14 42 41 -91 -90 -89 -88 92 0
91 -54 0
91 21 0
90 54 0
90 22 0
89 11 0
89 20 0
88 7 0
88 -20 0
-86 -85 -84 -83 -82 87 0
86 8 0
86 -7 0
85 9 0
85 -8 0
84 11 0
84 -10 0
83 10 0
83 -12 0
82 -71 0
82 -76 0
82 -81 0
32 38 37 53 61 49 64 -80 -79 -78 -77 81 0
80 59 0
80 12 0
79 -59 0
79 9 0
78 59 0
78 40 0
77 -59 0
77 39 0
23 28 29 52 46 63 60 -75 -74 -73 -72 76 0
75 59 0
75 10 0
74 -59 0
74 8 0
73 59 0
73 31 0
72 -59 0
72 30 0
13 19 18 51 62 58 42 -70 -69 -68 -67 71 0
70 59 0
70 22 0
69 -59 0
69 21 0
68 59 0
68 11 0
67 -59 0
67 7 0
